1495799
26,55,34,46,43,7,67,64,11,66,6,60,23,49,19,54,1,12,42,32,56,40,5,29,25,30,41,38,21,3,61,24,47,13,4,48,20,65,45,2,63,16,59,36,8,15,58,9,27,17,68,35,51,39,62,37,53,50,28,31,22,52,14,44,10,18,57,33